5 5
4 2 5 8 3 14 1 1 9 5 3 17 4 10 5 18 1 15 2 16 1 3 14
4 2 3 7 2 2 3 4 12 3 15 2 2 1 3 7 1 2 12
8 1 4 9 2 3 9 2 13 1 2 7 1 2 13 3 4 6 2 13 1 11 1 5 2 1 4 3 2 5 3 1 15
6 1 1 20 3 5 13 1 13 3 18 2 5 20 2 4 5 5 2 3 16 1 6 2 3 4 5 2 1 17 2 20 5 2 9 3 2 5 7 1 16 4 5
4 4 5 11 1 2 4 15 2 19 3 4 16 5 19 1 7 1 2 11 2 4 15 1 8